c File: flat50_3_0.col
c
c SOURCE: Joseph Culberson (joe@cs.ualberta.ca)
c DESCRIPTION: Quasi-random coloring problem
c              generated with flatness = 0
c                             probability = 0.139
c                             known coloring = 3
c                             random seed = 1649
c              Creation Date:  Tue Jun  9 12:14:29 1998
c Maximum degree = 8 Minimum degree = 2
c p edge 50 115
c cnf created by edge2cnf
p cnf 150 545
-1 -2 0
-1 -3 0
-2 -3 0
1 2 3 0
-4 -5 0
-4 -6 0
-5 -6 0
4 5 6 0
-7 -8 0
-7 -9 0
-8 -9 0
7 8 9 0
-10 -11 0
-10 -12 0
-11 -12 0
10 11 12 0
-13 -14 0
-13 -15 0
-14 -15 0
13 14 15 0
-16 -17 0
-16 -18 0
-17 -18 0
16 17 18 0
-19 -20 0
-19 -21 0
-20 -21 0
19 20 21 0
-22 -23 0
-22 -24 0
-23 -24 0
22 23 24 0
-25 -26 0
-25 -27 0
-26 -27 0
25 26 27 0
-28 -29 0
-28 -30 0
-29 -30 0
28 29 30 0
-31 -32 0
-31 -33 0
-32 -33 0
31 32 33 0
-34 -35 0
-34 -36 0
-35 -36 0
34 35 36 0
-37 -38 0
-37 -39 0
-38 -39 0
37 38 39 0
-40 -41 0
-40 -42 0
-41 -42 0
40 41 42 0
-43 -44 0
-43 -45 0
-44 -45 0
43 44 45 0
-46 -47 0
-46 -48 0
-47 -48 0
46 47 48 0
-49 -50 0
-49 -51 0
-50 -51 0
49 50 51 0
-52 -53 0
-52 -54 0
-53 -54 0
52 53 54 0
-55 -56 0
-55 -57 0
-56 -57 0
55 56 57 0
-58 -59 0
-58 -60 0
-59 -60 0
58 59 60 0
-61 -62 0
-61 -63 0
-62 -63 0
61 62 63 0
-64 -65 0
-64 -66 0
-65 -66 0
64 65 66 0
-67 -68 0
-67 -69 0
-68 -69 0
67 68 69 0
-70 -71 0
-70 -72 0
-71 -72 0
70 71 72 0
-73 -74 0
-73 -75 0
-74 -75 0
73 74 75 0
-76 -77 0
-76 -78 0
-77 -78 0
76 77 78 0
-79 -80 0
-79 -81 0
-80 -81 0
79 80 81 0
-82 -83 0
-82 -84 0
-83 -84 0
82 83 84 0
-85 -86 0
-85 -87 0
-86 -87 0
85 86 87 0
-88 -89 0
-88 -90 0
-89 -90 0
88 89 90 0
-91 -92 0
-91 -93 0
-92 -93 0
91 92 93 0
-94 -95 0
-94 -96 0
-95 -96 0
94 95 96 0
-97 -98 0
-97 -99 0
-98 -99 0
97 98 99 0
-100 -101 0
-100 -102 0
-101 -102 0
100 101 102 0
-103 -104 0
-103 -105 0
-104 -105 0
103 104 105 0
-106 -107 0
-106 -108 0
-107 -108 0
106 107 108 0
-109 -110 0
-109 -111 0
-110 -111 0
109 110 111 0
-112 -113 0
-112 -114 0
-113 -114 0
112 113 114 0
-115 -116 0
-115 -117 0
-116 -117 0
115 116 117 0
-118 -119 0
-118 -120 0
-119 -120 0
118 119 120 0
-121 -122 0
-121 -123 0
-122 -123 0
121 122 123 0
-124 -125 0
-124 -126 0
-125 -126 0
124 125 126 0
-127 -128 0
-127 -129 0
-128 -129 0
127 128 129 0
-130 -131 0
-130 -132 0
-131 -132 0
130 131 132 0
-133 -134 0
-133 -135 0
-134 -135 0
133 134 135 0
-136 -137 0
-136 -138 0
-137 -138 0
136 137 138 0
-139 -140 0
-139 -141 0
-140 -141 0
139 140 141 0
-142 -143 0
-142 -144 0
-143 -144 0
142 143 144 0
-145 -146 0
-145 -147 0
-146 -147 0
145 146 147 0
-148 -149 0
-148 -150 0
-149 -150 0
148 149 150 0
-94 -1 0
-95 -2 0
-96 -3 0
-115 -1 0
-116 -2 0
-117 -3 0
-127 -1 0
-128 -2 0
-129 -3 0
-136 -1 0
-137 -2 0
-138 -3 0
-52 -4 0
-53 -5 0
-54 -6 0
-103 -4 0
-104 -5 0
-105 -6 0
-106 -4 0
-107 -5 0
-108 -6 0
-118 -4 0
-119 -5 0
-120 -6 0
-127 -4 0
-128 -5 0
-129 -6 0
-70 -7 0
-71 -8 0
-72 -9 0
-85 -7 0
-86 -8 0
-87 -9 0
-100 -7 0
-101 -8 0
-102 -9 0
-103 -7 0
-104 -8 0
-105 -9 0
-139 -7 0
-140 -8 0
-141 -9 0
-145 -7 0
-146 -8 0
-147 -9 0
-55 -10 0
-56 -11 0
-57 -12 0
-61 -10 0
-62 -11 0
-63 -12 0
-88 -10 0
-89 -11 0
-90 -12 0
-97 -10 0
-98 -11 0
-99 -12 0
-124 -10 0
-125 -11 0
-126 -12 0
-142 -10 0
-143 -11 0
-144 -12 0
-145 -10 0
-146 -11 0
-147 -12 0
-55 -13 0
-56 -14 0
-57 -15 0
-97 -13 0
-98 -14 0
-99 -15 0
-115 -13 0
-116 -14 0
-117 -15 0
-121 -13 0
-122 -14 0
-123 -15 0
-130 -13 0
-131 -14 0
-132 -15 0
-61 -16 0
-62 -17 0
-63 -18 0
-67 -16 0
-68 -17 0
-69 -18 0
-73 -16 0
-74 -17 0
-75 -18 0
-115 -16 0
-116 -17 0
-117 -18 0
-145 -16 0
-146 -17 0
-147 -18 0
-109 -19 0
-110 -20 0
-111 -21 0
-115 -19 0
-116 -20 0
-117 -21 0
-52 -22 0
-53 -23 0
-54 -24 0
-70 -22 0
-71 -23 0
-72 -24 0
-97 -22 0
-98 -23 0
-99 -24 0
-100 -22 0
-101 -23 0
-102 -24 0
-109 -22 0
-110 -23 0
-111 -24 0
-124 -22 0
-125 -23 0
-126 -24 0
-58 -25 0
-59 -26 0
-60 -27 0
-88 -25 0
-89 -26 0
-90 -27 0
-106 -25 0
-107 -26 0
-108 -27 0
-121 -25 0
-122 -26 0
-123 -27 0
-58 -28 0
-59 -29 0
-60 -30 0
-67 -28 0
-68 -29 0
-69 -30 0
-73 -28 0
-74 -29 0
-75 -30 0
-109 -31 0
-110 -32 0
-111 -33 0
-142 -31 0
-143 -32 0
-144 -33 0
-55 -34 0
-56 -35 0
-57 -36 0
-61 -34 0
-62 -35 0
-63 -36 0
-73 -34 0
-74 -35 0
-75 -36 0
-124 -34 0
-125 -35 0
-126 -36 0
-127 -34 0
-128 -35 0
-129 -36 0
-58 -37 0
-59 -38 0
-60 -39 0
-100 -37 0
-101 -38 0
-102 -39 0
-70 -40 0
-71 -41 0
-72 -42 0
-76 -40 0
-77 -41 0
-78 -42 0
-118 -40 0
-119 -41 0
-120 -42 0
-148 -40 0
-149 -41 0
-150 -42 0
-64 -43 0
-65 -44 0
-66 -45 0
-70 -43 0
-71 -44 0
-72 -45 0
-76 -43 0
-77 -44 0
-78 -45 0
-82 -43 0
-83 -44 0
-84 -45 0
-106 -43 0
-107 -44 0
-108 -45 0
-118 -43 0
-119 -44 0
-120 -45 0
-133 -43 0
-134 -44 0
-135 -45 0
-139 -43 0
-140 -44 0
-141 -45 0
-64 -46 0
-65 -47 0
-66 -48 0
-73 -46 0
-74 -47 0
-75 -48 0
-91 -46 0
-92 -47 0
-93 -48 0
-100 -46 0
-101 -47 0
-102 -48 0
-118 -46 0
-119 -47 0
-120 -48 0
-139 -46 0
-140 -47 0
-141 -48 0
-145 -46 0
-146 -47 0
-147 -48 0
-55 -49 0
-56 -50 0
-57 -51 0
-97 -49 0
-98 -50 0
-99 -51 0
-106 -49 0
-107 -50 0
-108 -51 0
-115 -52 0
-116 -53 0
-117 -54 0
-130 -55 0
-131 -56 0
-132 -57 0
-109 -58 0
-110 -59 0
-111 -60 0
-118 -58 0
-119 -59 0
-120 -60 0
-103 -61 0
-104 -62 0
-105 -63 0
-109 -67 0
-110 -68 0
-111 -69 0
-112 -67 0
-113 -68 0
-114 -69 0
-142 -70 0
-143 -71 0
-144 -72 0
-148 -70 0
-149 -71 0
-150 -72 0
-103 -73 0
-104 -74 0
-105 -75 0
-148 -73 0
-149 -74 0
-150 -75 0
-112 -76 0
-113 -77 0
-114 -78 0
-148 -76 0
-149 -77 0
-150 -78 0
-106 -79 0
-107 -80 0
-108 -81 0
-127 -79 0
-128 -80 0
-129 -81 0
-136 -79 0
-137 -80 0
-138 -81 0
-139 -79 0
-140 -80 0
-141 -81 0
-103 -82 0
-104 -83 0
-105 -84 0
-124 -82 0
-125 -83 0
-126 -84 0
-118 -85 0
-119 -86 0
-120 -87 0
-139 -85 0
-140 -86 0
-141 -87 0
-109 -88 0
-110 -89 0
-111 -90 0
-118 -88 0
-119 -89 0
-120 -90 0
-130 -88 0
-131 -89 0
-132 -90 0
-133 -88 0
-134 -89 0
-135 -90 0
-106 -91 0
-107 -92 0
-108 -93 0
-115 -91 0
-116 -92 0
-117 -93 0
-139 -91 0
-140 -92 0
-141 -93 0
-127 -94 0
-128 -95 0
-129 -96 0
-133 -94 0
-134 -95 0
-135 -96 0
-106 -97 0
-107 -98 0
-108 -99 0
-112 -97 0
-113 -98 0
-114 -99 0
-121 -97 0
-122 -98 0
-123 -99 0
-136 -97 0
-137 -98 0
-138 -99 0
-109 -100 0
-110 -101 0
-111 -102 0
-133 -100 0
-134 -101 0
-135 -102 0
-142 -100 0
-143 -101 0
-144 -102 0
